single_objective/SL-DABL/OP/problems/op/OPLib-master/instances/gen1/pr264-gen1-50.oplib
NAME : pr264
COMMENT : 264-city problem (Padberg/Rinaldi)
TYPE : OP
DIMENSION : 264
COST_LIMIT : 24568
EDGE_WEIGHT_TYPE : EUC_2D
NODE_COORD_SECTION
1 3425 6450
2 3625 3200
3 3525 3200
4 3525 3350
5 3625 3350
6 3725 3350
7 3725 3650
8 3625 3650
9 3525 3650
10 3525 3850
11 3625 3850
12 3725 3850
13 3725 4150
14 3625 4150
15 3525 4150
16 3525 4350
17 3625 4350
18 3725 4350
19 3725 4650
20 3625 4650
21 3525 4650
22 3525 4850
23 3625 4850
24 3725 4850
25 3725 5150
26 3625 5150
27 3525 5150
28 3525 5350
29 3625 5350
30 3725 5350
31 3725 5650
32 3625 5650
33 3525 5650
34 3525 5850
35 3625 5850
36 3725 5850
37 3725 6150
38 3625 6150
39 3525 6150
40 3525 6450
41 3525 6650
42 3675 7150
43 3675 7500
44 3675 7700
45 3675 7850
46 3675 8050
47 3525 8300
48 3625 8300
49 3725 8300
50 3725 8600
51 3625 8600
52 3525 8600
53 3825 8750
54 3925 8750
55 3925 8600
56 3825 8600
57 3825 8300
58 3925 8300
59 3925 7600
60 3925 6150
61 3825 6150
62 3825 5850
63 3925 5850
64 3925 5650
65 3825 5650
66 3825 5350
67 3925 5350
68 3925 5150
69 3825 5150
70 3825 4850
71 3925 4850
72 3925 4650
73 3825 4650
74 3825 4350
75 3925 4350
76 3925 4150
77 3825 4150
78 3825 3850
79 3925 3850
80 3925 3650
81 3825 3650
82 3825 3350
83 3925 3350
84 3875 3200
85 4075 3200
86 4025 3350
87 4125 3350
88 4225 3350
89 4225 3650
90 4125 3650
91 4025 3650
92 4025 3850
93 4125 3850
94 4225 3850
95 4225 4150
96 4125 4150
97 4025 4150
98 4025 4350
99 4125 4350
100 4225 4350
101 4225 4650
102 4125 4650
103 4025 4650
104 4025 4850
105 4125 4850
106 4225 4850
107 4225 5150
108 4125 5150
109 4025 5150
110 4025 5350
111 4125 5350
112 4225 5350
113 4225 5650
114 4125 5650
115 4025 5650
116 4025 5850
117 4125 5850
118 4225 5850
119 4225 6150
120 4125 6150
121 4025 6150
122 4025 8300
123 4125 8300
124 4225 8300
125 4225 8600
126 4125 8600
127 4025 8600
128 4275 8850
129 4875 6100
130 4975 4050
131 4975 3900
132 4975 3750
133 9675 3200
134 9675 3350
135 9675 3650
136 9675 3850
137 9675 4150
138 9675 4350
139 9675 4650
140 9675 4850
141 9675 5150
142 9675 5350
143 9675 5650
144 9675 5850
145 9675 6150
146 9575 6450
147 9675 6450
148 9675 6650
149 9675 8300
150 9675 8600
151 9975 8750
152 9975 8600
153 9875 8600
154 9775 8600
155 9775 8300
156 9875 8300
157 9975 8300
158 9825 8050
159 9825 7850
160 9825 7700
161 9825 7500
162 9825 7150
163 9975 6150
164 9875 6150
165 9775 6150
166 9775 5850
167 9875 5850
168 9975 5850
169 9975 5650
170 9875 5650
171 9775 5650
172 9775 5350
173 9875 5350
174 9975 5350
175 9775 5150
176 9875 5150
177 9975 5150
178 9975 4850
179 9875 4850
180 9775 4850
181 9775 4650
182 9875 4650
183 9975 4650
184 9975 4350
185 9875 4350
186 9775 4350
187 9775 4150
188 9875 4150
189 9975 4150
190 9975 3850
191 9875 3850
192 9775 3850
193 9975 3650
194 9875 3650
195 9775 3650
196 9775 3350
197 9875 3350
198 9975 3350
199 9775 3200
200 10225 3200
201 10025 3200
202 10075 3350
203 10175 3350
204 10175 3650
205 10075 3650
206 10175 3850
207 10075 3850
208 10075 4150
209 10175 4150
210 10175 4350
211 10075 4350
212 10075 4650
213 10175 4650
214 10175 4850
215 10075 4850
216 10075 5150
217 10175 5150
218 10075 5350
219 10175 5350
220 10175 5650
221 10075 5650
222 10075 5850
223 10175 5850
224 10175 6150
225 10075 6150
226 10075 7600
227 10075 8300
228 10175 8300
229 10175 8600
230 10075 8600
231 10075 8750
232 10425 8850
233 10375 8600
234 10275 8600
235 10275 8300
236 10375 8300
237 10375 6150
238 10275 6150
239 10275 5850
240 10375 5850
241 10375 5650
242 10275 5650
243 10275 5350
244 10375 5350
245 10275 5150
246 10375 5150
247 10375 4850
248 10275 4850
249 10275 4650
250 10375 4650
251 10375 4350
252 10275 4350
253 10275 4150
254 10375 4150
255 10375 3850
256 10275 3850
257 10375 3650
258 10275 3650
259 10275 3350
260 10375 3350
261 11125 3750
262 11125 3900
263 11125 4050
264 11025 6100
NODE_SCORE_SECTION
1 1
2 1
3 1
4 1
5 1
6 1
7 1
8 1
9 1
10 1
11 1
12 1
13 1
14 1
15 1
16 1
17 1
18 1
19 1
20 1
21 1
22 1
23 1
24 1
25 1
26 1
27 1
28 1
29 1
30 1
31 1
32 1
33 1
34 1
35 1
36 1
37 1
38 1
39 1
40 1
41 1
42 1
43 1
44 1
45 1
46 1
47 1
48 1
49 1
50 1
51 1
52 1
53 1
54 1
55 1
56 1
57 1
58 1
59 1
60 1
61 1
62 1
63 1
64 1
65 1
66 1
67 1
68 1
69 1
70 1
71 1
72 1
73 1
74 1
75 1
76 1
77 1
78 1
79 1
80 1
81 1
82 1
83 1
84 1
85 1
86 1
87 1
88 1
89 1
90 1
91 1
92 1
93 1
94 1
95 1
96 1
97 1
98 1
99 1
100 1
101 1
102 1
103 1
104 1
105 1
106 1
107 1
108 1
109 1
110 1
111 1
112 1
113 1
114 1
115 1
116 1
117 1
118 1
119 1
120 1
121 1
122 1
123 1
124 1
125 1
126 1
127 1
128 1
129 1
130 1
131 1
132 1
133 1
134 1
135 1
136 1
137 1
138 1
139 1
140 1
141 1
142 1
143 1
144 1
145 1
146 1
147 1
148 1
149 1
150 1
151 1
152 1
153 1
154 1
155 1
156 1
157 1
158 1
159 1
160 1
161 1
162 1
163 1
164 1
165 1
166 1
167 1
168 1
169 1
170 1
171 1
172 1
173 1
174 1
175 1
176 1
177 1
178 1
179 1
180 1
181 1
182 1
183 1
184 1
185 1
186 1
187 1
188 1
189 1
190 1
191 1
192 1
193 1
194 1
195 1
196 1
197 1
198 1
199 1
200 1
201 1
202 1
203 1
204 1
205 1
206 1
207 1
208 1
209 1
210 1
211 1
212 1
213 1
214 1
215 1
216 1
217 1
218 1
219 1
220 1
221 1
222 1
223 1
224 1
225 1
226 1
227 1
228 1
229 1
230 1
231 1
232 1
233 1
234 1
235 1
236 1
237 1
238 1
239 1
240 1
241 1
242 1
243 1
244 1
245 1
246 1
247 1
248 1
249 1
250 1
251 1
252 1
253 1
254 1
255 1
256 1
257 1
258 1
259 1
260 1
261 1
262 1
263 1
264 1
DEPOT_SECTION
1
-1
EOF
