single_objective/SL-DABL/OP/problems/op/OPLib-master/solutions/ea4op/gen1/pr264-gen1-50.sol
NAME : pr264
TYPE : OP
DIMENSION : 264
COST_LIMIT : 24568
ROUTE_NODES : 132
ROUTE_SCORE : 132
ROUTE_COST : 23831
NODE_SEQUENCE_SECTION
1
39
38
37
61
60
121
120
119
129
118
117
116
113
114
115
64
65
63
62
36
35
34
33
32
31
28
29
30
66
67
110
111
112
107
108
109
68
69
25
26
27
22
23
24
70
71
104
105
106
101
102
103
72
73
19
20
21
16
17
18
74
75
98
99
100
95
96
97
76
77
13
14
15
10
11
12
78
79
92
93
94
89
90
91
80
81
7
8
9
4
3
2
5
6
82
83
84
85
86
87
88
132
131
130
59
57
58
122
123
124
125
128
126
127
55
54
53
56
50
51
52
47
48
49
46
45
44
43
42
41
40
-1
DEPOT_SECTION
1
-1
EOF
